minizinc/sudoku_problems2/sudoku_p7.dzn
%
% sudoku_p7.dzn
% See http://www.hakank.org/minizinc/sudoku_gcc.mzn
% 
% This problem is problem 7 from
% Gecode's sudoku.cpp
% http://www.gecode.org/gecode-doc-latest/sudoku_8cpp-source.html
% 
x = array2d(1..n, 1..n, [   
% Puzzle 2 from http://www.sudoku.org.uk/bifurcation.htm
% 7
  _,  _,  _,  3,  _,  2,  _,  _,  _,
  _,  5,  _,  7,  9,  8,  _,  3,  _,
  _,  _,  7,  _,  _,  _,  8,  _,  _,
  _,  _,  8,  6,  _,  7,  3,  _,  _,
  _,  7,  _,  _,  _,  _,  _,  6,  _,
  _,  _,  3,  5,  _,  4,  1,  _,  _,
  _,  _,  5,  _,  _,  _,  6,  _,  _,
  _,  2,  _,  4,  1,  9,  _,  5,  _,
  _,  _,  _,  8,  _,  6,  _,  _,  _
]);

n = 9;


